@relation 'dataset_consumo_energia-weka.filters.unsupervised.attribute.ReplaceMissingValues-weka.filters.unsupervised.attribute.MathExpression-Elog(A)-R1-3,5-6-weka.filters.unsupervised.attribute.Remove-R6-weka.filters.unsupervised.attribute.NominalToBinary-A-R1,2-weka.filters.unsupervised.attribute.Standardize'

@attribute Setor_Atividade=Residencial numeric
@attribute Setor_Atividade=Comercial numeric
@attribute Setor_Atividade=Industrial numeric
@attribute Dia_da_Semana=Segunda numeric
@attribute Dia_da_Semana=Terca numeric
@attribute Dia_da_Semana=Quarta numeric
@attribute Dia_da_Semana=Quinta numeric
@attribute Dia_da_Semana=Sexta numeric
@attribute Dia_da_Semana=Sabado numeric
@attribute Dia_da_Semana=Domingo numeric
@attribute Temperatura_Media numeric
@attribute Area_Metragem numeric
@attribute Ocupantes_Ativos numeric
@attribute Consumo_Energia numeric

@data
-0.714594,-0.702355,1.421044,2.292365,-0.41968,-0.387496,-0.387496,-0.447814,-0.374274,-0.400506,-0.434248,1.512474,-0.055851,7.566104
1.396706,-0.702355,-0.702355,2.292365,-0.41968,-0.387496,-0.387496,-0.447814,-0.374274,-0.400506,-0.744311,-1.26221,0,5.338019
-0.714594,-0.702355,1.421044,-0.435392,2.378186,-0.387496,-0.387496,-0.447814,-0.374274,-0.400506,1.536861,1.728219,-0.42226,7.669775
-0.714594,-0.702355,1.421044,-0.435392,-0.41968,2.575709,-0.387496,-0.447814,-0.374274,-0.400506,-1.453024,1.71351,2.563971,8.235308
1.396706,-0.702355,-0.702355,-0.435392,-0.41968,-0.387496,2.575709,-0.447814,-0.374274,-0.400506,-1.563761,-0.891044,0,5.48272
1.396706,-0.702355,-0.702355,-0.435392,-0.41968,-0.387496,-0.387496,2.228776,-0.374274,-0.400506,1.027473,-1.29636,-0.880271,5.6287
-0.714594,-0.702355,1.421044,-0.435392,-0.41968,-0.387496,-0.387496,2.228776,-0.374274,-0.400506,0.008698,1.476457,1.941076,7.938089
-0.714594,1.421044,-0.702355,-0.435392,-0.41968,-0.387496,2.575709,-0.447814,-0.374274,-0.400506,0.119434,-0.893529,-0.440581,6.086547
-0.714594,-0.702355,1.421044,-0.435392,-0.41968,-0.387496,-0.387496,-0.447814,-0.374274,2.492039,-0.412101,0.188316,1.66627,7.491199
-0.714594,-0.702355,1.421044,-0.435392,-0.41968,-0.387496,-0.387496,-0.447814,2.666702,-0.400506,-0.279217,0.904556,1.849474,7.702421
-0.714594,-0.702355,1.421044,-0.435392,2.378186,-0.387496,-0.387496,-0.447814,-0.374274,-0.400506,-0.522838,1.235585,0,7.488126
-0.714594,-0.702355,1.421044,-0.435392,-0.41968,-0.387496,-0.387496,2.228776,-0.374274,-0.400506,-0.700016,1.636161,1.26322,7.882617
1.396706,-0.702355,-0.702355,-0.435392,-0.41968,2.575709,-0.387496,-0.447814,-0.374274,-0.400506,-0.434248,-0.839297,-0.898592,5.742362
-0.714594,-0.702355,1.421044,-0.435392,2.378186,-0.387496,-0.387496,-0.447814,-0.374274,-0.400506,-0.478543,1.533391,0.933452,7.790903
-0.714594,1.421044,-0.702355,-0.435392,-0.41968,2.575709,-0.387496,-0.447814,-0.374274,-0.400506,-0.921489,-0.165427,-0.42226,6.283014
1.396706,-0.702355,-0.702355,-0.435392,-0.41968,-0.387496,-0.387496,-0.447814,-0.374274,2.492039,-0.611427,-1.139331,-0.916912,5.435031
-0.714594,1.421044,-0.702355,2.292365,-0.41968,-0.387496,-0.387496,-0.447814,-0.374274,-0.400506,-1.563761,-0.240844,-0.42226,6.104793
-0.714594,1.421044,-0.702355,-0.435392,2.378186,-0.387496,-0.387496,-0.447814,-0.374274,-0.400506,0.739558,0.349836,-0.294017,6.669879
-0.714594,1.421044,-0.702355,-0.435392,-0.41968,-0.387496,-0.387496,2.228776,-0.374274,-0.400506,0.429496,-1.014246,-0.587144,6.054205
-0.714594,1.421044,-0.702355,-0.435392,2.378186,-0.387496,-0.387496,-0.447814,-0.374274,-0.400506,-0.102039,0.265253,-0.788669,6.447464
1.396706,-0.702355,-0.702355,-0.435392,2.378186,-0.387496,-0.387496,-0.447814,-0.374274,-0.400506,0.252318,0.627747,-0.880271,5.719984
1.396706,-0.702355,-0.702355,-0.435392,2.378186,-0.387496,-0.387496,-0.447814,-0.374274,-0.400506,0.296612,-1.054487,-0.880271,5.656341
-0.714594,1.421044,-0.702355,-0.435392,-0.41968,-0.387496,-0.387496,-0.447814,2.666702,-0.400506,-0.810753,0.151985,0.127353,6.683236
-0.714594,1.421044,-0.702355,-0.435392,2.378186,-0.387496,-0.387496,-0.447814,-0.374274,-0.400506,-0.611427,-0.088709,-0.330658,6.410997
1.396706,-0.702355,-0.702355,-0.435392,-0.41968,2.575709,-0.387496,-0.447814,-0.374274,-0.400506,0.56238,-0.749936,-0.935232,5.629777
1.396706,-0.702355,-0.702355,2.292365,-0.41968,-0.387496,-0.387496,-0.447814,-0.374274,-0.400506,0.208023,-0.734482,-0.916912,5.793623
1.396706,-0.702355,-0.702355,-0.435392,-0.41968,-0.387496,-0.387496,-0.447814,-0.374274,2.492039,2.245575,-1.069444,-0.898592,5.70711
-0.714594,-0.702355,1.421044,-0.435392,-0.41968,-0.387496,2.575709,-0.447814,-0.374274,-0.400506,1.780481,0.942444,-0.239056,7.273925
-0.714594,-0.702355,1.421044,-0.435392,2.378186,-0.387496,-0.387496,-0.447814,-0.374274,-0.400506,1.027473,1.388291,2.490689,8.025778
-0.714594,-0.702355,1.421044,-0.435392,-0.41968,-0.387496,-0.387496,2.228776,-0.374274,-0.400506,-0.855047,1.669146,2.380767,8.113127
-0.714594,1.421044,-0.702355,-0.435392,2.378186,-0.387496,-0.387496,-0.447814,-0.374274,-0.400506,-0.633574,-0.520898,0.292237,6.533353
-0.714594,-0.702355,1.421044,-0.435392,-0.41968,-0.387496,-0.387496,2.228776,-0.374274,-0.400506,-1.120815,1.420186,1.134977,7.809866
-0.714594,1.421044,-0.702355,-0.435392,-0.41968,2.575709,-0.387496,-0.447814,-0.374274,-0.400506,0,0.066416,0.200635,6.667084
-0.714594,1.421044,-0.702355,-0.435392,-0.41968,-0.387496,-0.387496,2.228776,-0.374274,-0.400506,-1.563761,0.158734,-0.770348,6.272877
-0.714594,-0.702355,1.421044,-0.435392,-0.41968,-0.387496,2.575709,-0.447814,-0.374274,-0.400506,-0.522838,0.591082,1.519706,7.56107
-0.714594,1.421044,-0.702355,2.292365,-0.41968,-0.387496,-0.387496,-0.447814,-0.374274,-0.400506,-0.345659,0.143805,-0.477221,6.529857
-0.714594,-0.702355,1.421044,-0.435392,-0.41968,-0.387496,-0.387496,2.228776,-0.374274,-0.400506,-1.563761,0.627747,-0.220735,7.622272
-0.714594,-0.702355,1.421044,-0.435392,-0.41968,-0.387496,-0.387496,2.228776,-0.374274,-0.400506,0.872442,0.726559,2.234203,7.673363
1.396706,-0.702355,-0.702355,2.292365,-0.41968,-0.387496,-0.387496,-0.447814,-0.374274,-0.400506,-1.275846,-1.2517,-0.898592,5.481472
-0.714594,-0.702355,1.421044,-0.435392,-0.41968,-0.387496,2.575709,-0.447814,-0.374274,-0.400506,0.274465,1.711161,1.391463,8.011521
1.396706,-0.702355,-0.702355,-0.435392,2.378186,-0.387496,-0.387496,-0.447814,-0.374274,-0.400506,3.065025,-1.318852,-0.953553,5.429346
-0.714594,-0.702355,1.421044,-0.435392,-0.41968,-0.387496,-0.387496,2.228776,-0.374274,-0.400506,-1.563761,1.625462,1.702911,7.999779
-0.714594,-0.702355,1.421044,2.292365,-0.41968,-0.387496,-0.387496,-0.447814,-0.374274,-0.400506,-0.168481,1.273351,1.391463,7.751432
1.396706,-0.702355,-0.702355,-0.435392,-0.41968,2.575709,-0.387496,-0.447814,-0.374274,-0.400506,-0.456396,-1.241334,0,5.45018
1.396706,-0.702355,-0.702355,2.292365,-0.41968,-0.387496,-0.387496,-0.447814,-0.374274,-0.400506,-0.677869,-0.751581,-0.935232,5.567199
-0.714594,-0.702355,1.421044,-0.435392,-0.41968,2.575709,-0.387496,-0.447814,-0.374274,-0.400506,0.828148,1.212635,1.996038,7.810961
-0.714594,1.421044,-0.702355,-0.435392,-0.41968,-0.387496,2.575709,-0.447814,-0.374274,-0.400506,1.204652,-0.05595,-0.806989,6.202738
1.396706,-0.702355,-0.702355,-0.435392,2.378186,-0.387496,-0.387496,-0.447814,-0.374274,-0.400506,0.850295,-1.126315,-0.898592,5.516649
-0.714594,1.421044,-0.702355,2.292365,-0.41968,-0.387496,-0.387496,-0.447814,-0.374274,-0.400506,-0.810753,0.627747,0,6.238715
-0.714594,1.421044,-0.702355,-0.435392,-0.41968,-0.387496,-0.387496,-0.447814,-0.374274,2.492039,2.688521,-0.628093,-0.770348,6.080848
-0.714594,1.421044,-0.702355,-0.435392,-0.41968,-0.387496,-0.387496,-0.447814,-0.374274,2.492039,-1.563761,-0.212041,0.365519,6.602181
1.396706,-0.702355,-0.702355,-0.435392,-0.41968,-0.387496,-0.387496,-0.447814,2.666702,-0.400506,-1.165109,-0.696804,-0.898592,5.783517
-0.714594,1.421044,-0.702355,-0.435392,-0.41968,-0.387496,-0.387496,2.228776,-0.374274,-0.400506,0.163729,-0.426606,0.347198,6.497077
1.396706,-0.702355,-0.702355,-0.435392,-0.41968,-0.387496,2.575709,-0.447814,-0.374274,-0.400506,0.075139,-0.886593,-0.935232,5.557214
-0.714594,1.421044,-0.702355,2.292365,-0.41968,-0.387496,-0.387496,-0.447814,-0.374274,-0.400506,0.518085,-0.310866,-0.642105,6.12534
-0.714594,-0.702355,1.421044,-0.435392,-0.41968,-0.387496,-0.387496,-0.447814,-0.374274,2.492039,1.736187,1.559899,2.08764,8.015922
-0.714594,-0.702355,1.421044,-0.435392,-0.41968,-0.387496,-0.387496,2.228776,-0.374274,-0.400506,-0.146334,0.588884,1.702911,7.662844
1.396706,-0.702355,-0.702355,-0.435392,-0.41968,-0.387496,-0.387496,-0.447814,-0.374274,2.492039,0.119434,-0.696421,-0.916912,5.789042
-0.714594,-0.702355,1.421044,2.292365,-0.41968,-0.387496,-0.387496,-0.447814,-0.374274,-0.400506,-0.677869,1.223977,2.197562,7.821202
-0.714594,-0.702355,1.421044,-0.435392,-0.41968,2.575709,-0.387496,-0.447814,-0.374274,-0.400506,0.628822,0.85925,0.567044,7.428749
-0.714594,1.421044,-0.702355,2.292365,-0.41968,-0.387496,-0.387496,-0.447814,-0.374274,-0.400506,-0.367807,-0.889063,-0.074172,6.280209
1.396706,-0.702355,-0.702355,-0.435392,-0.41968,-0.387496,-0.387496,-0.447814,2.666702,-0.400506,-0.367807,-1.332142,-0.880271,5.592106
-0.714594,1.421044,-0.702355,2.292365,-0.41968,-0.387496,-0.387496,-0.447814,-0.374274,-0.400506,0.584527,-0.050439,-0.660426,6.348964
-0.714594,1.421044,-0.702355,2.292365,-0.41968,-0.387496,-0.387496,-0.447814,-0.374274,-0.400506,1.13821,-0.292124,-0.165774,6.359055
-0.714594,1.421044,-0.702355,-0.435392,-0.41968,-0.387496,-0.387496,-0.447814,2.666702,-0.400506,-1.563761,0.236412,0.237276,6.708694
-0.714594,1.421044,-0.702355,-0.435392,-0.41968,-0.387496,2.575709,-0.447814,-0.374274,-0.400506,0.385202,-0.158305,0.163994,8.996441
-0.714594,1.421044,-0.702355,2.292365,-0.41968,-0.387496,-0.387496,-0.447814,-0.374274,-0.400506,-0.323512,-0.444429,-0.605465,6.070045
-0.714594,1.421044,-0.702355,-0.435392,-0.41968,-0.387496,-0.387496,-0.447814,2.666702,-0.400506,1.027473,0.052328,-0.568824,6.411818
-0.714594,1.421044,-0.702355,-0.435392,-0.41968,-0.387496,-0.387496,2.228776,-0.374274,-0.400506,-0.301365,0.627747,-0.202415,6.611234
1.396706,-0.702355,-0.702355,-0.435392,-0.41968,2.575709,-0.387496,-0.447814,-0.374274,-0.400506,1.426125,-1.335726,-0.880271,5.593596
-0.714594,-0.702355,1.421044,-0.435392,-0.41968,2.575709,-0.387496,-0.447814,-0.374274,-0.400506,-0.766458,0.694812,1.574668,7.574353
-0.714594,1.421044,-0.702355,2.292365,-0.41968,-0.387496,-0.387496,-0.447814,-0.374274,-0.400506,-1.563761,-1.028413,-0.458901,5.965634
-0.714594,1.421044,-0.702355,-0.435392,-0.41968,-0.387496,2.575709,-0.447814,-0.374274,-0.400506,1.160357,0.161539,-0.532183,6.432297
-0.714594,1.421044,-0.702355,-0.435392,-0.41968,-0.387496,2.575709,-0.447814,-0.374274,-0.400506,-0.943636,0.097012,0.457121,6.861816
-0.714594,1.421044,-0.702355,-0.435392,-0.41968,-0.387496,-0.387496,2.228776,-0.374274,-0.400506,-1.563761,-0.103298,0.200635,6.495568
-0.714594,1.421044,-0.702355,2.292365,-0.41968,-0.387496,-0.387496,-0.447814,-0.374274,-0.400506,0.008698,0.248103,0,6.789985
-0.714594,1.421044,-0.702355,-0.435392,-0.41968,2.575709,-0.387496,-0.447814,-0.374274,-0.400506,-0.279217,0.218355,-0.752028,6.482189
-0.714594,-0.702355,1.421044,-0.435392,-0.41968,-0.387496,2.575709,-0.447814,-0.374274,-0.400506,0.894589,1.380799,1.391463,7.824686
-0.714594,-0.702355,1.421044,2.292365,-0.41968,-0.387496,-0.387496,-0.447814,-0.374274,-0.400506,0.983179,1.636161,1.647949,7.995711
-0.714594,1.421044,-0.702355,-0.435392,-0.41968,-0.387496,-0.387496,-0.447814,-0.374274,2.492039,0,-0.531259,-0.752028,5.944373
-0.714594,-0.702355,1.421044,-0.435392,-0.41968,-0.387496,2.575709,-0.447814,-0.374274,-0.400506,-0.987931,0.527778,-0.275697,6.985827
1.396706,-0.702355,-0.702355,-0.435392,-0.41968,-0.387496,-0.387496,-0.447814,2.666702,-0.400506,0.296612,-1.216414,-0.935232,5.487283
-0.714594,1.421044,-0.702355,-0.435392,-0.41968,-0.387496,-0.387496,-0.447814,-0.374274,2.492039,0.163729,-0.947703,-0.385619,5.963579
1.396706,-0.702355,-0.702355,-0.435392,-0.41968,-0.387496,2.575709,-0.447814,-0.374274,-0.400506,0,-0.978283,-0.916912,5.68392
1.396706,-0.702355,-0.702355,-0.435392,-0.41968,2.575709,-0.387496,-0.447814,-0.374274,-0.400506,-0.987931,-0.714622,-0.935232,5.592851
-0.714594,1.421044,-0.702355,-0.435392,2.378186,-0.387496,-0.387496,-0.447814,-0.374274,-0.400506,-0.456396,-1.017763,-0.147454,6.176283
-0.714594,-0.702355,1.421044,-0.435392,-0.41968,-0.387496,-0.387496,-0.447814,-0.374274,2.492039,0.540233,0.561277,0.347198,7.230636
1.396706,-0.702355,-0.702355,-0.435392,-0.41968,-0.387496,-0.387496,2.228776,-0.374274,-0.400506,0,-1.042854,-0.880271,5.73625
-0.714594,1.421044,-0.702355,-0.435392,-0.41968,-0.387496,-0.387496,2.228776,-0.374274,-0.400506,1.049621,0.313274,-0.129133,6.633582
1.396706,-0.702355,-0.702355,-0.435392,-0.41968,2.575709,-0.387496,-0.447814,-0.374274,-0.400506,0.075139,-1.168213,-0.898592,5.580484
1.396706,-0.702355,-0.702355,-0.435392,-0.41968,-0.387496,2.575709,-0.447814,-0.374274,-0.400506,-0.544985,-0.997477,-0.898592,5.713073
1.396706,-0.702355,-0.702355,2.292365,-0.41968,-0.387496,-0.387496,-0.447814,-0.374274,-0.400506,0.429496,-1.513281,-0.953553,5.15848
1.396706,-0.702355,-0.702355,-0.435392,-0.41968,-0.387496,2.575709,-0.447814,-0.374274,-0.400506,-1.231551,-1.359451,-0.880271,5.505332
-0.714594,-0.702355,1.421044,-0.435392,-0.41968,2.575709,-0.387496,-0.447814,-0.374274,-0.400506,-0.921489,1.721621,-0.275697,7.695394
1.396706,-0.702355,-0.702355,-0.435392,-0.41968,-0.387496,-0.387496,2.228776,-0.374274,-0.400506,1.647598,-0.699104,-0.953553,5.728475
1.396706,-0.702355,-0.702355,-0.435392,-0.41968,-0.387496,2.575709,-0.447814,-0.374274,-0.400506,0.429496,-1.573714,-0.898592,5.428468
1.396706,-0.702355,-0.702355,-0.435392,-0.41968,-0.387496,-0.387496,2.228776,-0.374274,-0.400506,-0.389954,-0.706047,-0.880271,8.0977
-0.714594,-0.702355,1.421044,-0.435392,-0.41968,-0.387496,-0.387496,-0.447814,-0.374274,2.492039,0.894589,1.436494,-0.385619,7.518118
1.396706,-0.702355,-0.702355,2.292365,-0.41968,-0.387496,-0.387496,-0.447814,-0.374274,-0.400506,1.403977,-0.753231,-0.916912,5.84846
1.396706,-0.702355,-0.702355,-0.435392,-0.41968,-0.387496,-0.387496,-0.447814,-0.374274,2.492039,-0.50069,-1.040428,-0.880271,8.172447
-0.714594,-0.702355,1.421044,-0.435392,-0.41968,-0.387496,-0.387496,2.228776,-0.374274,-0.400506,-0.478543,1.301745,0.82353,7.698075
-0.714594,-0.702355,1.421044,-0.435392,-0.41968,-0.387496,-0.387496,2.228776,-0.374274,-0.400506,-0.633574,1.269062,0.365519,7.476416
-0.714594,-0.702355,1.421044,-0.435392,2.378186,-0.387496,-0.387496,-0.447814,-0.374274,-0.400506,1.049621,1.463707,1.776192,7.882013
1.396706,-0.702355,-0.702355,-0.435392,2.378186,-0.387496,-0.387496,-0.447814,-0.374274,-0.400506,1.071768,-1.370659,-0.935232,5.409859
-0.714594,-0.702355,1.421044,-0.435392,-0.41968,-0.387496,-0.387496,-0.447814,-0.374274,2.492039,1.514714,0.627747,2.252524,7.740577
-0.714594,-0.702355,1.421044,-0.435392,-0.41968,-0.387496,-0.387496,-0.447814,2.666702,-0.400506,1.093915,1.000231,0.860171,7.56657
1.396706,-0.702355,-0.702355,-0.435392,-0.41968,-0.387496,-0.387496,-0.447814,-0.374274,2.492039,0,-0.853788,-0.916912,5.593596
-0.714594,-0.702355,1.421044,-0.435392,2.378186,-0.387496,-0.387496,-0.447814,-0.374274,-0.400506,0.296612,0.781561,0,7.763616
1.396706,-0.702355,-0.702355,-0.435392,-0.41968,-0.387496,-0.387496,2.228776,-0.374274,-0.400506,-1.187257,-0.87485,-0.898592,5.597681
-0.714594,1.421044,-0.702355,-0.435392,-0.41968,2.575709,-0.387496,-0.447814,-0.374274,-0.400506,-0.58928,0.33791,0.273917,6.861397
-0.714594,-0.702355,1.421044,-0.435392,-0.41968,-0.387496,-0.387496,-0.447814,-0.374274,2.492039,0.185876,0.46474,2.050999,7.697258
-0.714594,1.421044,-0.702355,-0.435392,-0.41968,-0.387496,-0.387496,2.228776,-0.374274,-0.400506,0.916737,0.105061,0.072392,6.64665
1.396706,-0.702355,-0.702355,-0.435392,-0.41968,2.575709,-0.387496,-0.447814,-0.374274,-0.400506,-1.010078,-1.05018,-0.916912,5.492238
-0.714594,-0.702355,1.421044,-0.435392,-0.41968,2.575709,-0.387496,-0.447814,-0.374274,-0.400506,-1.563761,1.636059,0,8.064857
1.396706,-0.702355,-0.702355,-0.435392,2.378186,-0.387496,-0.387496,-0.447814,-0.374274,-0.400506,0.185876,-1.323256,-0.880271,5.537334
-0.714594,1.421044,-0.702355,-0.435392,-0.41968,-0.387496,-0.387496,-0.447814,-0.374274,2.492039,2.909994,0.123212,-0.275697,6.58562
1.396706,-0.702355,-0.702355,-0.435392,-0.41968,-0.387496,2.575709,-0.447814,-0.374274,-0.400506,0,-0.770768,-0.935232,5.75162
-0.714594,-0.702355,1.421044,2.292365,-0.41968,-0.387496,-0.387496,-0.447814,-0.374274,-0.400506,0.030845,1.692398,1.501386,7.998671
-0.714594,-0.702355,1.421044,-0.435392,2.378186,-0.387496,-0.387496,-0.447814,-0.374274,-0.400506,1.95766,1.479313,2.270844,8.001824
-0.714594,1.421044,-0.702355,-0.435392,2.378186,-0.387496,-0.387496,-0.447814,-0.374274,-0.400506,0.650969,-0.076402,0.347198,6.649244
1.396706,-0.702355,-0.702355,-0.435392,-0.41968,-0.387496,2.575709,-0.447814,-0.374274,-0.400506,0.230171,-0.913708,-0.916912,5.669191
-0.714594,-0.702355,1.421044,2.292365,-0.41968,-0.387496,-0.387496,-0.447814,-0.374274,-0.400506,0.473791,1.636654,2.582292,8.120678
-0.714594,1.421044,-0.702355,-0.435392,-0.41968,-0.387496,-0.387496,2.228776,-0.374274,-0.400506,0.274465,0.004959,-0.00089,6.551223
-0.714594,-0.702355,1.421044,-0.435392,-0.41968,-0.387496,-0.387496,-0.447814,2.666702,-0.400506,-1.275846,0.186906,1.080016,7.420579
-0.714594,-0.702355,1.421044,-0.435392,-0.41968,-0.387496,-0.387496,-0.447814,-0.374274,2.492039,-1.497319,1.682637,1.428104,8.051086
1.396706,-0.702355,-0.702355,-0.435392,-0.41968,-0.387496,-0.387496,-0.447814,2.666702,-0.400506,2.068396,0.627747,-0.953553,5.582744
-0.714594,-0.702355,1.421044,-0.435392,-0.41968,-0.387496,-0.387496,2.228776,-0.374274,-0.400506,0.185876,1.472936,2.032679,7.870281
1.396706,-0.702355,-0.702355,-0.435392,2.378186,-0.387496,-0.387496,-0.447814,-0.374274,-0.400506,0.097287,-1.277012,-0.898592,5.56337
-0.714594,-0.702355,1.421044,2.292365,-0.41968,-0.387496,-0.387496,-0.447814,-0.374274,-0.400506,-0.124186,1.455986,1.428104,7.825725
-0.714594,1.421044,-0.702355,-0.435392,2.378186,-0.387496,-0.387496,-0.447814,-0.374274,-0.400506,0.850295,-0.208243,0.035751,6.560182
-0.714594,-0.702355,1.421044,-0.435392,-0.41968,2.575709,-0.387496,-0.447814,-0.374274,-0.400506,2.799257,1.44849,0.40216,7.59282
1.396706,-0.702355,-0.702355,-0.435392,2.378186,-0.387496,-0.387496,-0.447814,-0.374274,-0.400506,0.56238,-1.416249,-0.898592,5.524656
1.396706,-0.702355,-0.702355,-0.435392,2.378186,-0.387496,-0.387496,-0.447814,-0.374274,-0.400506,-0.655721,-0.885607,-0.880271,5.660875
-0.714594,1.421044,-0.702355,-0.435392,-0.41968,-0.387496,-0.387496,2.228776,-0.374274,-0.400506,0,0.357557,-0.220735,6.730063
-0.714594,-0.702355,1.421044,-0.435392,-0.41968,-0.387496,-0.387496,2.228776,-0.374274,-0.400506,1.182504,0.27588,2.014358,7.628323
-0.714594,-0.702355,1.421044,-0.435392,-0.41968,-0.387496,-0.387496,2.228776,-0.374274,-0.400506,-0.655721,1.715148,-0.568824,7.619086
-0.714594,1.421044,-0.702355,-0.435392,-0.41968,-0.387496,-0.387496,-0.447814,2.666702,-0.400506,0.938884,-0.190316,-0.458901,6.289901
-0.714594,-0.702355,1.421044,-0.435392,-0.41968,2.575709,-0.387496,-0.447814,-0.374274,-0.400506,-1.563761,1.638063,0.218955,7.782432
-0.714594,-0.702355,1.421044,-0.435392,-0.41968,-0.387496,-0.387496,2.228776,-0.374274,-0.400506,-0.25707,1.567407,1.977717,8.010559
1.396706,-0.702355,-0.702355,2.292365,-0.41968,-0.387496,-0.387496,-0.447814,-0.374274,-0.400506,0.673116,-0.950921,0,5.708106
-0.714594,-0.702355,1.421044,-0.435392,-0.41968,-0.387496,-0.387496,-0.447814,2.666702,-0.400506,1.403977,1.529638,0.731927,7.890246
-0.714594,-0.702355,1.421044,-0.435392,-0.41968,-0.387496,2.575709,-0.447814,-0.374274,-0.400506,-0.921489,1.643956,1.2449,7.852906
-0.714594,1.421044,-0.702355,2.292365,-0.41968,-0.387496,-0.387496,-0.447814,-0.374274,-0.400506,-1.563761,0.627747,-0.660426,6.209997
-0.714594,1.421044,-0.702355,-0.435392,-0.41968,-0.387496,-0.387496,-0.447814,-0.374274,2.492039,-0.301365,0.627747,-0.532183,6.19052
1.396706,-0.702355,-0.702355,-0.435392,-0.41968,-0.387496,-0.387496,-0.447814,-0.374274,2.492039,-1.253699,-0.878744,-0.880271,5.66296
-0.714594,-0.702355,1.421044,2.292365,-0.41968,-0.387496,-0.387496,-0.447814,-0.374274,-0.400506,-0.168481,1.58846,0.475441,7.704812
-0.714594,-0.702355,1.421044,-0.435392,-0.41968,-0.387496,-0.387496,2.228776,-0.374274,-0.400506,-0.01345,0.627747,1.886115,7.97498
-0.714594,-0.702355,1.421044,-0.435392,-0.41968,-0.387496,2.575709,-0.447814,-0.374274,-0.400506,-1.475172,1.580245,0.273917,7.762
1.396706,-0.702355,-0.702355,-0.435392,-0.41968,-0.387496,2.575709,-0.447814,-0.374274,-0.400506,0.872442,-1.056959,-0.916912,5.572534
1.396706,-0.702355,-0.702355,-0.435392,-0.41968,-0.387496,-0.387496,-0.447814,2.666702,-0.400506,-0.190628,-0.782693,-0.880271,5.865901
-0.714594,1.421044,-0.702355,-0.435392,-0.41968,-0.387496,2.575709,-0.447814,-0.374274,-0.400506,1.182504,-0.742576,0.457121,6.480351
1.396706,-0.702355,-0.702355,-0.435392,-0.41968,-0.387496,-0.387496,-0.447814,-0.374274,2.492039,-1.563761,-0.968317,-0.953553,5.415211
-0.714594,-0.702355,1.421044,-0.435392,-0.41968,2.575709,-0.387496,-0.447814,-0.374274,-0.400506,-1.142962,0.04369,1.354822,7.347686
-0.714594,-0.702355,1.421044,-0.435392,-0.41968,-0.387496,-0.387496,2.228776,-0.374274,-0.400506,0.56238,1.029409,0.292237,7.433312
1.396706,-0.702355,-0.702355,-0.435392,-0.41968,-0.387496,2.575709,-0.447814,-0.374274,-0.400506,-0.899342,-1.119554,-0.880271,5.6458
-0.714594,-0.702355,1.421044,-0.435392,-0.41968,-0.387496,-0.387496,-0.447814,2.666702,-0.400506,-0.190628,1.143384,2.050999,7.80633
-0.714594,-0.702355,1.421044,-0.435392,-0.41968,-0.387496,-0.387496,-0.447814,-0.374274,2.492039,-0.01345,1.490751,2.472369,7.899932
1.396706,-0.702355,-0.702355,-0.435392,-0.41968,2.575709,-0.387496,-0.447814,-0.374274,-0.400506,0.163729,-1.098975,-0.916912,5.543614
1.396706,-0.702355,-0.702355,-0.435392,2.378186,-0.387496,-0.387496,-0.447814,-0.374274,-0.400506,-0.766458,-1.045898,-0.935232,5.487283
-0.714594,-0.702355,1.421044,-0.435392,2.378186,-0.387496,-0.387496,-0.447814,-0.374274,-0.400506,0.141581,0.862456,0.622005,7.445476
-0.714594,-0.702355,1.421044,-0.435392,-0.41968,2.575709,-0.387496,-0.447814,-0.374274,-0.400506,0,1.108731,1.061695,7.675917
-0.714594,-0.702355,1.421044,-0.435392,-0.41968,-0.387496,-0.387496,-0.447814,-0.374274,2.492039,0.739558,0.840066,0.530403,7.346075
-0.714594,1.421044,-0.702355,-0.435392,-0.41968,-0.387496,-0.387496,-0.447814,2.666702,-0.400506,-0.146334,-0.890053,-0.147454,6.255558
-0.714594,1.421044,-0.702355,-0.435392,-0.41968,2.575709,-0.387496,-0.447814,-0.374274,-0.400506,0.163729,0.038688,0.072392,6.682735
-0.714594,1.421044,-0.702355,-0.435392,-0.41968,-0.387496,-0.387496,2.228776,-0.374274,-0.400506,2.821405,0.100981,-0.440581,6.417549
1.396706,-0.702355,-0.702355,-0.435392,-0.41968,-0.387496,-0.387496,2.228776,-0.374274,-0.400506,-1.231551,-0.912686,-0.935232,5.542831
-0.714594,1.421044,-0.702355,-0.435392,2.378186,-0.387496,-0.387496,-0.447814,-0.374274,-0.400506,1.514714,-0.116941,0,6.656469
1.396706,-0.702355,-0.702355,-0.435392,-0.41968,-0.387496,2.575709,-0.447814,-0.374274,-0.400506,-1.563761,-1.106874,-0.880271,5.581615
1.396706,-0.702355,-0.702355,-0.435392,-0.41968,-0.387496,-0.387496,-0.447814,2.666702,-0.400506,-1.563761,-0.755711,-0.898592,5.739793
-0.714594,1.421044,-0.702355,-0.435392,2.378186,-0.387496,-0.387496,-0.447814,-0.374274,-0.400506,-1.386582,-0.051085,0.457121,6.670006
-0.714594,1.421044,-0.702355,-0.435392,-0.41968,-0.387496,2.575709,-0.447814,-0.374274,-0.400506,-1.32014,-0.097772,-0.752028,6.107691
-0.714594,1.421044,-0.702355,-0.435392,-0.41968,-0.387496,2.575709,-0.447814,-0.374274,-0.400506,0.208023,-1.076401,-0.110813,6.220192
-0.714594,-0.702355,1.421044,-0.435392,-0.41968,-0.387496,-0.387496,2.228776,-0.374274,-0.400506,0.296612,1.05753,2.344126,7.797209
-0.714594,1.421044,-0.702355,-0.435392,-0.41968,-0.387496,-0.387496,-0.447814,-0.374274,2.492039,0,-0.227633,-0.806989,6.006107
-0.714594,-0.702355,1.421044,2.292365,-0.41968,-0.387496,-0.387496,-0.447814,-0.374274,-0.400506,-0.168481,1.147279,-0.202415,7.365686
1.396706,-0.702355,-0.702355,-0.435392,-0.41968,-0.387496,-0.387496,-0.447814,-0.374274,2.492039,0.56238,-0.94131,-0.953553,5.454894
-0.714594,-0.702355,1.421044,2.292365,-0.41968,-0.387496,-0.387496,-0.447814,-0.374274,-0.400506,0.916737,1.322957,1.189938,7.792101
-0.714594,1.421044,-0.702355,-0.435392,-0.41968,2.575709,-0.387496,-0.447814,-0.374274,-0.400506,-1.475172,0.04312,0.457121,6.753788
1.396706,-0.702355,-0.702355,-0.435392,-0.41968,-0.387496,-0.387496,2.228776,-0.374274,-0.400506,-0.412101,-0.815152,-0.953553,5.470589
1.396706,-0.702355,-0.702355,-0.435392,-0.41968,-0.387496,2.575709,-0.447814,-0.374274,-0.400506,-0.079892,-0.785704,-0.898592,5.713073
1.396706,-0.702355,-0.702355,-0.435392,-0.41968,-0.387496,-0.387496,-0.447814,2.666702,-0.400506,0.518085,-0.84534,-0.898592,5.788736
-0.714594,-0.702355,1.421044,2.292365,-0.41968,-0.387496,-0.387496,-0.447814,-0.374274,-0.400506,-0.877194,1.7001,0.40216,7.785056
-0.714594,1.421044,-0.702355,-0.435392,-0.41968,-0.387496,-0.387496,-0.447814,-0.374274,2.492039,-0.102039,-1.109526,-0.257376,6.097175
1.396706,-0.702355,-0.702355,-0.435392,-0.41968,-0.387496,2.575709,-0.447814,-0.374274,-0.400506,0.008698,-1.300634,-0.898592,5.524656
1.396706,-0.702355,-0.702355,2.292365,-0.41968,-0.387496,-0.387496,-0.447814,-0.374274,-0.400506,0,-1.568794,-0.953553,5.185149
1.396706,-0.702355,-0.702355,2.292365,-0.41968,-0.387496,-0.387496,-0.447814,-0.374274,-0.400506,-0.810753,-0.893031,-0.898592,5.651436
-0.714594,-0.702355,1.421044,2.292365,-0.41968,-0.387496,-0.387496,-0.447814,-0.374274,-0.400506,0.097287,1.658581,2.252524,8.065517
-0.714594,-0.702355,1.421044,-0.435392,-0.41968,-0.387496,-0.387496,-0.447814,2.666702,-0.400506,-0.168481,0.875144,2.142601,7.827998
-0.714594,1.421044,-0.702355,-0.435392,-0.41968,-0.387496,-0.387496,2.228776,-0.374274,-0.400506,0.540233,0.308488,-0.275697,6.738745
-0.714594,-0.702355,1.421044,-0.435392,-0.41968,-0.387496,-0.387496,-0.447814,2.666702,-0.400506,-1.187257,0.330468,0.933452,7.39049
1.396706,-0.702355,-0.702355,-0.435392,2.378186,-0.387496,-0.387496,-0.447814,-0.374274,-0.400506,-0.412101,-0.715799,-0.898592,5.785055
-0.714594,1.421044,-0.702355,-0.435392,-0.41968,-0.387496,2.575709,-0.447814,-0.374274,-0.400506,-0.25707,-0.269716,-0.697067,6.067499
1.396706,-0.702355,-0.702355,-0.435392,-0.41968,-0.387496,-0.387496,2.228776,-0.374274,-0.400506,0.894589,-1.423282,-0.916912,5.384954
1.396706,-0.702355,-0.702355,-0.435392,-0.41968,-0.387496,-0.387496,2.228776,-0.374274,-0.400506,-1.054373,-1.014831,-0.898592,5.616771
-0.714594,-0.702355,1.421044,-0.435392,-0.41968,-0.387496,-0.387496,2.228776,-0.374274,-0.400506,0.252318,0.902703,-0.385619,7.164798
-0.714594,1.421044,-0.702355,-0.435392,-0.41968,-0.387496,-0.387496,-0.447814,-0.374274,2.492039,0.274465,-0.378294,-0.642105,6.173786
-0.714594,-0.702355,1.421044,-0.435392,-0.41968,-0.387496,-0.387496,2.228776,-0.374274,-0.400506,1.802629,0.999078,0.82353,7.580496
-0.714594,-0.702355,1.421044,-0.435392,-0.41968,-0.387496,-0.387496,-0.447814,2.666702,-0.400506,-1.120815,1.584518,0,7.932577
-0.714594,1.421044,-0.702355,-0.435392,-0.41968,-0.387496,-0.387496,2.228776,-0.374274,-0.400506,-0.744311,-0.028789,0.163994,6.663005
1.396706,-0.702355,-0.702355,-0.435392,-0.41968,2.575709,-0.387496,-0.447814,-0.374274,-0.400506,-1.054373,-1.173257,-0.935232,5.335613
1.396706,-0.702355,-0.702355,-0.435392,-0.41968,-0.387496,2.575709,-0.447814,-0.374274,-0.400506,-1.563761,-0.919353,0,5.428907
-0.714594,1.421044,-0.702355,-0.435392,-0.41968,-0.387496,-0.387496,2.228776,-0.374274,-0.400506,1.935513,0.144054,0.457121,6.839048
1.396706,-0.702355,-0.702355,-0.435392,-0.41968,-0.387496,2.575709,-0.447814,-0.374274,-0.400506,-1.386582,-1.213357,-0.898592,5.580484
-0.714594,1.421044,-0.702355,-0.435392,-0.41968,2.575709,-0.387496,-0.447814,-0.374274,-0.400506,-0.921489,-0.181222,0,6.62526
-0.714594,1.421044,-0.702355,-0.435392,-0.41968,2.575709,-0.387496,-0.447814,-0.374274,-0.400506,1.448272,-0.737709,0.200635,6.48738
-0.714594,-0.702355,1.421044,-0.435392,-0.41968,-0.387496,2.575709,-0.447814,-0.374274,-0.400506,-1.563761,0.730327,1.318181,7.523211
-0.714594,1.421044,-0.702355,2.292365,-0.41968,-0.387496,-0.387496,-0.447814,-0.374274,-0.400506,0.828148,0.112894,0.218955,6.747587
-0.714594,-0.702355,1.421044,-0.435392,2.378186,-0.387496,-0.387496,-0.447814,-0.374274,-0.400506,-1.563761,0.731067,-0.257376,7.116638
1.396706,-0.702355,-0.702355,-0.435392,-0.41968,-0.387496,-0.387496,-0.447814,-0.374274,2.492039,1.359683,-0.983316,-0.898592,5.668155
1.396706,-0.702355,-0.702355,2.292365,-0.41968,-0.387496,-0.387496,-0.447814,-0.374274,-0.400506,-1.563761,-0.850961,-0.935232,5.640488
1.396706,-0.702355,-0.702355,2.292365,-0.41968,-0.387496,-0.387496,-0.447814,-0.374274,-0.400506,-1.563761,-1.415249,-0.953553,5.181784
1.396706,-0.702355,-0.702355,-0.435392,-0.41968,-0.387496,-0.387496,-0.447814,2.666702,-0.400506,-0.611427,-0.950921,0,5.608372
-0.714594,-0.702355,1.421044,-0.435392,-0.41968,-0.387496,-0.387496,-0.447814,-0.374274,2.492039,1.071768,0.90225,-0.513862,7.146615
1.396706,-0.702355,-0.702355,-0.435392,-0.41968,-0.387496,-0.387496,-0.447814,-0.374274,2.492039,-0.057744,-0.700257,-0.935232,5.726196
-0.714594,1.421044,-0.702355,2.292365,-0.41968,-0.387496,-0.387496,-0.447814,-0.374274,-0.400506,0,-0.092458,-0.239056,6.469405
-0.714594,1.421044,-0.702355,-0.435392,-0.41968,-0.387496,-0.387496,2.228776,-0.374274,-0.400506,1.470419,0.218581,-0.458901,6.515749
-0.714594,1.421044,-0.702355,-0.435392,-0.41968,-0.387496,-0.387496,-0.447814,2.666702,-0.400506,2.378459,-0.016649,-0.550503,6.360266
-0.714594,-0.702355,1.421044,-0.435392,-0.41968,-0.387496,-0.387496,-0.447814,2.666702,-0.400506,0.739558,0.252967,2.582292,7.677817
1.396706,-0.702355,-0.702355,-0.435392,-0.41968,2.575709,-0.387496,-0.447814,-0.374274,-0.400506,-0.700016,-0.903046,-0.880271,5.734312
1.396706,-0.702355,-0.702355,-0.435392,-0.41968,-0.387496,-0.387496,-0.447814,-0.374274,2.492039,-0.478543,-0.706435,-0.935232,5.726522
1.396706,-0.702355,-0.702355,2.292365,-0.41968,-0.387496,-0.387496,-0.447814,-0.374274,-0.400506,-1.430877,-0.925561,-0.935232,5.53418
-0.714594,-0.702355,1.421044,-0.435392,-0.41968,2.575709,-0.387496,-0.447814,-0.374274,-0.400506,0.097287,1.597642,1.556347,8.042603
-0.714594,1.421044,-0.702355,-0.435392,-0.41968,-0.387496,2.575709,-0.447814,-0.374274,-0.400506,-1.563761,0.277863,-0.568824,6.482036
-0.714594,1.421044,-0.702355,-0.435392,2.378186,-0.387496,-0.387496,-0.447814,-0.374274,-0.400506,0,0.627747,0.218955,6.537561
1.396706,-0.702355,-0.702355,-0.435392,-0.41968,-0.387496,-0.387496,-0.447814,2.666702,-0.400506,0,-1.281176,-0.880271,5.584999
-0.714594,1.421044,-0.702355,-0.435392,-0.41968,-0.387496,2.575709,-0.447814,-0.374274,-0.400506,0.783853,0.046249,0.237276,6.677083
-0.714594,1.421044,-0.702355,-0.435392,-0.41968,-0.387496,2.575709,-0.447814,-0.374274,-0.400506,-0.522838,-0.184691,0,6.320049
-0.714594,-0.702355,1.421044,-0.435392,-0.41968,-0.387496,-0.387496,2.228776,-0.374274,-0.400506,0.56238,1.614118,0.860171,7.906695
-0.714594,-0.702355,1.421044,-0.435392,2.378186,-0.387496,-0.387496,-0.447814,-0.374274,-0.400506,1.780481,1.660064,0.622005,7.852128
-0.714594,-0.702355,1.421044,-0.435392,-0.41968,-0.387496,2.575709,-0.447814,-0.374274,-0.400506,1.736187,1.077429,1.757872,7.765611
-0.714594,-0.702355,1.421044,-0.435392,-0.41968,-0.387496,2.575709,-0.447814,-0.374274,-0.400506,-1.120815,0.861022,0,7.412583
1.396706,-0.702355,-0.702355,-0.435392,2.378186,-0.387496,-0.387496,-0.447814,-0.374274,-0.400506,0.56238,-0.805355,-0.935232,5.636574
-0.714594,-0.702355,1.421044,-0.435392,2.378186,-0.387496,-0.387496,-0.447814,-0.374274,-0.400506,-0.190628,0.627747,2.380767,7.86319
-0.714594,1.421044,-0.702355,-0.435392,-0.41968,-0.387496,2.575709,-0.447814,-0.374274,-0.400506,0.872442,0.23155,0.072392,6.761689
1.396706,-0.702355,-0.702355,-0.435392,2.378186,-0.387496,-0.387496,-0.447814,-0.374274,-0.400506,0.407349,-1.067558,-0.916912,5.582368
-0.714594,1.421044,-0.702355,-0.435392,-0.41968,-0.387496,2.575709,-0.447814,-0.374274,-0.400506,-1.563761,0.100453,-0.605465,6.344056
-0.714594,1.421044,-0.702355,-0.435392,-0.41968,-0.387496,2.575709,-0.447814,-0.374274,-0.400506,-0.389954,-0.81605,0.292237,6.443495
-0.714594,1.421044,-0.702355,-0.435392,-0.41968,-0.387496,-0.387496,2.228776,-0.374274,-0.400506,0.208023,0.058917,-0.074172,6.547503
-0.714594,-0.702355,1.421044,2.292365,-0.41968,-0.387496,-0.387496,-0.447814,-0.374274,-0.400506,-1.563761,1.221291,2.307485,7.922261
-0.714594,-0.702355,1.421044,-0.435392,-0.41968,-0.387496,2.575709,-0.447814,-0.374274,-0.400506,0.628822,1.382137,2.618933,8.037931
1.396706,-0.702355,-0.702355,-0.435392,-0.41968,2.575709,-0.387496,-0.447814,-0.374274,-0.400506,-1.563761,-1.334828,-0.880271,5.516649
1.396706,-0.702355,-0.702355,-0.435392,-0.41968,-0.387496,-0.387496,-0.447814,2.666702,-0.400506,-0.899342,-0.832843,-0.898592,5.668846
-0.714594,-0.702355,1.421044,-0.435392,-0.41968,-0.387496,-0.387496,-0.447814,-0.374274,2.492039,1.470419,1.631968,1.68459,7.897854
-0.714594,1.421044,-0.702355,2.292365,-0.41968,-0.387496,-0.387496,-0.447814,-0.374274,-0.400506,-0.987931,-0.508292,0.475441,6.622337
1.396706,-0.702355,-0.702355,2.292365,-0.41968,-0.387496,-0.387496,-0.447814,-0.374274,-0.400506,0.628822,-1.431403,-0.953553,5.246498
-0.714594,-0.702355,1.421044,2.292365,-0.41968,-0.387496,-0.387496,-0.447814,-0.374274,-0.400506,-1.563761,0.150381,0.84185,7.233094
-0.714594,-0.702355,1.421044,-0.435392,-0.41968,-0.387496,-0.387496,2.228776,-0.374274,-0.400506,2.289869,1.439351,2.142601,8.019119
-0.714594,-0.702355,1.421044,-0.435392,-0.41968,-0.387496,2.575709,-0.447814,-0.374274,-0.400506,-0.345659,0.627747,0.475441,7.630898
-0.714594,1.421044,-0.702355,-0.435392,-0.41968,-0.387496,-0.387496,2.228776,-0.374274,-0.400506,0.097287,0.627747,0.292237,6.727312
-0.714594,-0.702355,1.421044,-0.435392,-0.41968,-0.387496,2.575709,-0.447814,-0.374274,-0.400506,0.185876,0.850375,1.153298,7.581923
-0.714594,-0.702355,1.421044,-0.435392,-0.41968,-0.387496,-0.387496,2.228776,-0.374274,-0.400506,0.650969,1.135567,0,7.3916
-0.714594,-0.702355,1.421044,-0.435392,-0.41968,-0.387496,-0.387496,2.228776,-0.374274,-0.400506,-1.563761,1.390535,0,7.48594
-0.714594,-0.702355,1.421044,-0.435392,-0.41968,-0.387496,-0.387496,-0.447814,2.666702,-0.400506,-0.01345,1.278903,2.454049,8.004967
1.396706,-0.702355,-0.702355,-0.435392,-0.41968,2.575709,-0.387496,-0.447814,-0.374274,-0.400506,-0.744311,-0.686917,-0.953553,5.654942
1.396706,-0.702355,-0.702355,-0.435392,-0.41968,-0.387496,-0.387496,2.228776,-0.374274,-0.400506,-1.563761,-1.375379,-0.953553,5.170484
-0.714594,-0.702355,1.421044,-0.435392,-0.41968,-0.387496,-0.387496,-0.447814,2.666702,-0.400506,0,1.490462,1.153298,7.850571
-0.714594,1.421044,-0.702355,-0.435392,2.378186,-0.387496,-0.387496,-0.447814,-0.374274,-0.400506,-0.412101,-0.193828,0.457121,6.567656
1.396706,-0.702355,-0.702355,-0.435392,-0.41968,2.575709,-0.387496,-0.447814,-0.374274,-0.400506,0.252318,-1.0638,-0.935232,5.514638
-0.714594,-0.702355,1.421044,-0.435392,-0.41968,-0.387496,-0.387496,2.228776,-0.374274,-0.400506,0.185876,1.511029,0.548723,7.685749
1.396706,-0.702355,-0.702355,-0.435392,-0.41968,-0.387496,-0.387496,-0.447814,-0.374274,2.492039,-0.389954,-0.862333,-0.935232,5.517854
1.396706,-0.702355,-0.702355,2.292365,-0.41968,-0.387496,-0.387496,-0.447814,-0.374274,-0.400506,2.179133,-0.685031,-0.880271,5.831296
-0.714594,1.421044,-0.702355,-0.435392,2.378186,-0.387496,-0.387496,-0.447814,-0.374274,-0.400506,-0.057744,-0.71934,-0.733708,5.952204
-0.714594,-0.702355,1.421044,-0.435392,2.378186,-0.387496,-0.387496,-0.447814,-0.374274,-0.400506,-1.563761,0.50111,-0.605465,6.796265
-0.714594,-0.702355,1.421044,-0.435392,-0.41968,-0.387496,-0.387496,-0.447814,2.666702,-0.400506,-0.456396,0.627747,-0.239056,7.647357
-0.714594,1.421044,-0.702355,-0.435392,2.378186,-0.387496,-0.387496,-0.447814,-0.374274,-0.400506,0.540233,0.013164,0,6.644831
-0.714594,1.421044,-0.702355,-0.435392,-0.41968,2.575709,-0.387496,-0.447814,-0.374274,-0.400506,0.584527,0.627747,0.383839,6.50249
-0.714594,-0.702355,1.421044,-0.435392,-0.41968,-0.387496,-0.387496,2.228776,-0.374274,-0.400506,-1.209404,0.409838,0.713607,7.238425
-0.714594,-0.702355,1.421044,-0.435392,-0.41968,-0.387496,-0.387496,2.228776,-0.374274,-0.400506,1.005326,0.433995,1.153298,7.512727
-0.714594,1.421044,-0.702355,-0.435392,-0.41968,-0.387496,-0.387496,-0.447814,-0.374274,2.492039,-1.563761,0.285121,-0.532183,6.494963
1.396706,-0.702355,-0.702355,2.292365,-0.41968,-0.387496,-0.387496,-0.447814,-0.374274,-0.400506,1.248946,-1.304931,-0.916912,5.456602
1.396706,-0.702355,-0.702355,-0.435392,-0.41968,-0.387496,-0.387496,-0.447814,2.666702,-0.400506,-1.475172,0.627747,-0.880271,5.572534
-0.714594,1.421044,-0.702355,2.292365,-0.41968,-0.387496,-0.387496,-0.447814,-0.374274,-0.400506,-0.25707,-0.487744,-0.110813,6.363545
1.396706,-0.702355,-0.702355,-0.435392,2.378186,-0.387496,-0.387496,-0.447814,-0.374274,-0.400506,1.160357,-1.1304,-0.898592,5.665042
-0.714594,1.421044,-0.702355,-0.435392,-0.41968,-0.387496,-0.387496,-0.447814,-0.374274,2.492039,0.119434,-0.903046,-0.092492,6.325792
1.396706,-0.702355,-0.702355,2.292365,-0.41968,-0.387496,-0.387496,-0.447814,-0.374274,-0.400506,0.894589,-0.987818,-0.898592,5.649678
1.396706,-0.702355,-0.702355,-0.435392,-0.41968,2.575709,-0.387496,-0.447814,-0.374274,-0.400506,0.673116,-1.472301,-0.916912,5.333202
-0.714594,-0.702355,1.421044,-0.435392,-0.41968,-0.387496,-0.387496,2.228776,-0.374274,-0.400506,1.403977,1.58233,1.886115,7.991626
-0.714594,-0.702355,1.421044,-0.435392,2.378186,-0.387496,-0.387496,-0.447814,-0.374274,-0.400506,1.160357,0.854198,1.171618,7.581312
1.396706,-0.702355,-0.702355,-0.435392,-0.41968,-0.387496,-0.387496,-0.447814,-0.374274,2.492039,-0.522838,-0.971624,-0.916912,5.526249
1.396706,-0.702355,-0.702355,2.292365,-0.41968,-0.387496,-0.387496,-0.447814,-0.374274,-0.400506,0.695264,-0.746247,-0.953553,5.596197
-0.714594,-0.702355,1.421044,-0.435392,-0.41968,-0.387496,-0.387496,-0.447814,2.666702,-0.400506,-1.563761,1.44814,-0.055851,7.567552
-0.714594,-0.702355,1.421044,-0.435392,-0.41968,2.575709,-0.387496,-0.447814,-0.374274,-0.400506,-0.079892,1.322208,1.831154,7.860841
-0.714594,-0.702355,1.421044,-0.435392,-0.41968,2.575709,-0.387496,-0.447814,-0.374274,-0.400506,0.894589,1.028989,-0.257376,7.265919
-0.714594,1.421044,-0.702355,2.292365,-0.41968,-0.387496,-0.387496,-0.447814,-0.374274,-0.400506,0.141581,-0.298395,-0.458901,6.20294
1.396706,-0.702355,-0.702355,-0.435392,-0.41968,-0.387496,-0.387496,2.228776,-0.374274,-0.400506,0.473791,-0.877768,-0.935232,5.595455
-0.714594,-0.702355,1.421044,2.292365,-0.41968,-0.387496,-0.387496,-0.447814,-0.374274,-0.400506,-0.25707,1.726729,1.68459,8.009297
1.396706,-0.702355,-0.702355,-0.435392,2.378186,-0.387496,-0.387496,-0.447814,-0.374274,-0.400506,1.226799,-0.882658,-0.898592,5.774862
-0.714594,1.421044,-0.702355,2.292365,-0.41968,-0.387496,-0.387496,-0.447814,-0.374274,-0.400506,-0.102039,-0.008664,-0.550503,6.385532
-0.714594,1.421044,-0.702355,-0.435392,-0.41968,2.575709,-0.387496,-0.447814,-0.374274,-0.400506,-0.522838,0.627747,-0.568824,6.322924
-0.714594,-0.702355,1.421044,-0.435392,-0.41968,-0.387496,-0.387496,-0.447814,-0.374274,2.492039,0.961031,1.238943,2.197562,7.850454
-0.714594,1.421044,-0.702355,2.292365,-0.41968,-0.387496,-0.387496,-0.447814,-0.374274,-0.400506,-1.563761,-0.936551,-0.092492,6.126869
1.396706,-0.702355,-0.702355,-0.435392,-0.41968,-0.387496,-0.387496,2.228776,-0.374274,-0.400506,0.540233,-0.954692,-0.935232,5.531411
-0.714594,-0.702355,1.421044,-0.435392,-0.41968,-0.387496,-0.387496,-0.447814,-0.374274,2.492039,-1.165109,1.701566,-0.129133,7.733333
1.396706,-0.702355,-0.702355,-0.435392,-0.41968,-0.387496,-0.387496,-0.447814,2.666702,-0.400506,1.403977,-1.325911,-0.935232,5.342813
1.396706,-0.702355,-0.702355,-0.435392,-0.41968,-0.387496,2.575709,-0.447814,-0.374274,-0.400506,-0.301365,-0.863766,-0.953553,5.484797
-0.714594,1.421044,-0.702355,2.292365,-0.41968,-0.387496,-0.387496,-0.447814,-0.374274,-0.400506,0.141581,-0.541767,0.328878,6.474199
-0.714594,1.421044,-0.702355,-0.435392,-0.41968,-0.387496,-0.387496,2.228776,-0.374274,-0.400506,0.451644,-0.032407,0.383839,6.718167
-0.714594,1.421044,-0.702355,-0.435392,-0.41968,-0.387496,-0.387496,-0.447814,-0.374274,2.492039,-1.563761,-0.812468,-0.367299,6.073966
-0.714594,1.421044,-0.702355,-0.435392,-0.41968,-0.387496,-0.387496,2.228776,-0.374274,-0.400506,-0.744311,-0.133177,-0.770348,6.089498
-0.714594,1.421044,-0.702355,-0.435392,-0.41968,-0.387496,-0.387496,-0.447814,2.666702,-0.400506,1.13821,0.178148,-0.01921,6.687483
-0.714594,-0.702355,1.421044,-0.435392,-0.41968,2.575709,-0.387496,-0.447814,-0.374274,-0.400506,0.938884,1.067945,1.134977,7.606984
1.396706,-0.702355,-0.702355,-0.435392,-0.41968,-0.387496,-0.387496,2.228776,-0.374274,-0.400506,0.296612,-0.880698,-0.935232,5.585749
1.396706,-0.702355,-0.702355,-0.435392,-0.41968,-0.387496,-0.387496,-0.447814,-0.374274,2.492039,-1.497319,-0.79612,-0.898592,5.779817
1.396706,-0.702355,-0.702355,-0.435392,-0.41968,-0.387496,-0.387496,2.228776,-0.374274,-0.400506,0.628822,-0.719735,-0.916912,5.825705
1.396706,-0.702355,-0.702355,-0.435392,-0.41968,-0.387496,-0.387496,2.228776,-0.374274,-0.400506,0.783853,-1.255725,-0.898592,5.479805
-0.714594,1.421044,-0.702355,-0.435392,-0.41968,-0.387496,-0.387496,2.228776,-0.374274,-0.400506,0.030845,-0.200705,-0.40394,6.351235
1.396706,-0.702355,-0.702355,-0.435392,2.378186,-0.387496,-0.387496,-0.447814,-0.374274,-0.400506,1.337535,-1.354829,-0.953553,5.373425
-0.714594,-0.702355,1.421044,-0.435392,2.378186,-0.387496,-0.387496,-0.447814,-0.374274,-0.400506,-0.766458,1.725614,1.611308,7.982894
-0.714594,-0.702355,1.421044,-0.435392,-0.41968,2.575709,-0.387496,-0.447814,-0.374274,-0.400506,-0.567132,1.679789,2.618933,8.190576
1.396706,-0.702355,-0.702355,2.292365,-0.41968,-0.387496,-0.387496,-0.447814,-0.374274,-0.400506,-1.563761,-0.971624,-0.916912,5.613128
1.396706,-0.702355,-0.702355,-0.435392,-0.41968,-0.387496,-0.387496,2.228776,-0.374274,-0.400506,1.005326,-0.768238,-0.916912,5.68358
-0.714594,-0.702355,1.421044,-0.435392,-0.41968,-0.387496,-0.387496,-0.447814,2.666702,-0.400506,0.340907,1.308119,0.292237,7.513818
-0.714594,-0.702355,1.421044,2.292365,-0.41968,-0.387496,-0.387496,-0.447814,-0.374274,-0.400506,-1.563761,1.420821,-0.440581,7.486165
-0.714594,1.421044,-0.702355,-0.435392,-0.41968,-0.387496,-0.387496,-0.447814,2.666702,-0.400506,-1.563761,-0.836524,-0.605465,5.914043
-0.714594,-0.702355,1.421044,2.292365,-0.41968,-0.387496,-0.387496,-0.447814,-0.374274,-0.400506,-0.987931,1.544326,0.713607,7.806941
-0.714594,1.421044,-0.702355,-0.435392,-0.41968,2.575709,-0.387496,-0.447814,-0.374274,-0.400506,0.872442,-0.721315,0,5.987457
-0.714594,1.421044,-0.702355,-0.435392,-0.41968,-0.387496,-0.387496,2.228776,-0.374274,-0.400506,-0.345659,0.234206,-0.385619,6.569902
-0.714594,1.421044,-0.702355,-0.435392,-0.41968,-0.387496,-0.387496,2.228776,-0.374274,-0.400506,-0.899342,0.19939,-0.074172,6.566954
-0.714594,1.421044,-0.702355,-0.435392,-0.41968,-0.387496,2.575709,-0.447814,-0.374274,-0.400506,-1.120815,0.137548,-0.165774,6.613518
-0.714594,1.421044,-0.702355,-0.435392,-0.41968,-0.387496,-0.387496,-0.447814,2.666702,-0.400506,-1.187257,-1.030801,0.182314,6.396763
1.396706,-0.702355,-0.702355,2.292365,-0.41968,-0.387496,-0.387496,-0.447814,-0.374274,-0.400506,-1.563761,-1.181985,-0.953553,5.276072
-0.714594,-0.702355,1.421044,2.292365,-0.41968,-0.387496,-0.387496,-0.447814,-0.374274,-0.400506,-1.342288,0.915489,0.218955,7.313154
-0.714594,1.421044,-0.702355,-0.435392,2.378186,-0.387496,-0.387496,-0.447814,-0.374274,-0.400506,-1.209404,-0.256841,-0.550503,6.093795
-0.714594,-0.702355,1.421044,-0.435392,-0.41968,-0.387496,2.575709,-0.447814,-0.374274,-0.400506,0.739558,0.441486,2.582292,7.785555
-0.714594,-0.702355,1.421044,-0.435392,-0.41968,-0.387496,-0.387496,-0.447814,-0.374274,2.492039,-0.190628,1.686938,1.26322,7.998906
-0.714594,1.421044,-0.702355,-0.435392,-0.41968,-0.387496,-0.387496,-0.447814,-0.374274,2.492039,-0.921489,-0.012799,-0.055851,6.528543
1.396706,-0.702355,-0.702355,-0.435392,2.378186,-0.387496,-0.387496,-0.447814,-0.374274,-0.400506,2.53349,-1.179064,-0.898592,5.690359
-0.714594,1.421044,-0.702355,-0.435392,2.378186,-0.387496,-0.387496,-0.447814,-0.374274,-0.400506,-0.744311,0.627747,0.457121,6.634765
1.396706,-0.702355,-0.702355,-0.435392,2.378186,-0.387496,-0.387496,-0.447814,-0.374274,-0.400506,1.271094,-1.047119,-0.898592,5.679148
-0.714594,-0.702355,1.421044,-0.435392,-0.41968,-0.387496,-0.387496,-0.447814,2.666702,-0.400506,1.780481,1.397019,1.739552,7.846199
1.396706,-0.702355,-0.702355,-0.435392,-0.41968,-0.387496,-0.387496,-0.447814,2.666702,-0.400506,-1.563761,-0.990646,-0.916912,5.527443
1.396706,-0.702355,-0.702355,-0.435392,-0.41968,2.575709,-0.387496,-0.447814,-0.374274,-0.400506,0.075139,-0.724089,-0.880271,5.82541
1.396706,-0.702355,-0.702355,-0.435392,-0.41968,2.575709,-0.387496,-0.447814,-0.374274,-0.400506,-0.58928,-1.005525,-0.916912,5.566052
-0.714594,-0.702355,1.421044,-0.435392,2.378186,-0.387496,-0.387496,-0.447814,-0.374274,-0.400506,-0.677869,1.725387,-0.147454,7.740273
-0.714594,-0.702355,1.421044,-0.435392,-0.41968,-0.387496,2.575709,-0.447814,-0.374274,-0.400506,0.606675,1.623166,1.446425,7.958052
1.396706,-0.702355,-0.702355,2.292365,-0.41968,-0.387496,-0.387496,-0.447814,-0.374274,-0.400506,-0.700016,-1.285363,-0.916912,5.457456
1.396706,-0.702355,-0.702355,-0.435392,-0.41968,-0.387496,-0.387496,-0.447814,2.666702,-0.400506,-0.567132,-0.717764,-0.953553,5.602857
-0.714594,1.421044,-0.702355,-0.435392,-0.41968,-0.387496,2.575709,-0.447814,-0.374274,-0.400506,-0.190628,-0.753231,-0.806989,5.740436
1.396706,-0.702355,-0.702355,-0.435392,-0.41968,-0.387496,-0.387496,2.228776,-0.374274,-0.400506,-0.434248,-0.783122,-0.880271,5.869862
-0.714594,1.421044,-0.702355,-0.435392,-0.41968,-0.387496,-0.387496,-0.447814,2.666702,-0.400506,-1.32014,-0.227019,-0.239056,6.413295
1.396706,-0.702355,-0.702355,-0.435392,-0.41968,-0.387496,-0.387496,-0.447814,2.666702,-0.400506,0.872442,-0.747475,-0.898592,5.7301
-0.714594,1.421044,-0.702355,-0.435392,-0.41968,2.575709,-0.387496,-0.447814,-0.374274,-0.400506,1.13821,0.265995,0.054071,6.784344
-0.714594,-0.702355,1.421044,2.292365,-0.41968,-0.387496,-0.387496,-0.447814,-0.374274,-0.400506,0.363054,1.5869,1.318181,7.89551
1.396706,-0.702355,-0.702355,2.292365,-0.41968,-0.387496,-0.387496,-0.447814,-0.374274,-0.400506,-0.434248,-0.799624,-0.880271,5.789654
1.396706,-0.702355,-0.702355,-0.435392,-0.41968,-0.387496,-0.387496,-0.447814,-0.374274,2.492039,-0.788605,-1.179793,-0.898592,5.536547
1.396706,-0.702355,-0.702355,-0.435392,-0.41968,-0.387496,-0.387496,-0.447814,-0.374274,2.492039,-0.788605,-1.453147,-0.916912,5.335613
1.396706,-0.702355,-0.702355,-0.435392,-0.41968,-0.387496,-0.387496,-0.447814,-0.374274,2.492039,2.599932,-1.085992,-0.953553,5.468482
-0.714594,1.421044,-0.702355,-0.435392,-0.41968,-0.387496,-0.387496,-0.447814,-0.374274,2.492039,1.027473,-0.604037,-0.605465,6.028279
1.396706,-0.702355,-0.702355,-0.435392,-0.41968,-0.387496,-0.387496,2.228776,-0.374274,-0.400506,-0.943636,-0.860425,-0.916912,5.578597
-0.714594,-0.702355,1.421044,-0.435392,-0.41968,-0.387496,-0.387496,2.228776,-0.374274,-0.400506,0.163729,0.627747,0.200635,7.36074
-0.714594,-0.702355,1.421044,-0.435392,-0.41968,-0.387496,-0.387496,-0.447814,2.666702,-0.400506,-0.412101,1.714062,1.538027,8.023487
1.396706,-0.702355,-0.702355,-0.435392,2.378186,-0.387496,-0.387496,-0.447814,-0.374274,-0.400506,0.628822,-0.897521,-0.953553,5.506956
-0.714594,-0.702355,1.421044,-0.435392,-0.41968,2.575709,-0.387496,-0.447814,-0.374274,-0.400506,0.584527,1.600303,0.512082,7.829113
1.396706,-0.702355,-0.702355,-0.435392,-0.41968,2.575709,-0.387496,-0.447814,-0.374274,-0.400506,1.182504,-1.380129,0,5.646506
1.396706,-0.702355,-0.702355,-0.435392,-0.41968,-0.387496,-0.387496,-0.447814,-0.374274,2.492039,-0.965784,-0.75654,-0.880271,5.757323
-0.714594,-0.702355,1.421044,-0.435392,-0.41968,-0.387496,-0.387496,-0.447814,2.666702,-0.400506,0,1.67672,-0.257376,7.716372
1.396706,-0.702355,-0.702355,-0.435392,-0.41968,-0.387496,2.575709,-0.447814,-0.374274,-0.400506,-1.563761,-1.013661,-0.880271,5.654242
-0.714594,-0.702355,1.421044,-0.435392,2.378186,-0.387496,-0.387496,-0.447814,-0.374274,-0.400506,-1.40873,1.402936,2.325806,7.990577
-0.714594,1.421044,-0.702355,-0.435392,-0.41968,-0.387496,-0.387496,-0.447814,2.666702,-0.400506,0.961031,0.185375,-0.752028,6.393925
1.396706,-0.702355,-0.702355,-0.435392,2.378186,-0.387496,-0.387496,-0.447814,-0.374274,-0.400506,-1.07652,-1.325911,-0.898592,5.487697
-0.714594,1.421044,-0.702355,-0.435392,2.378186,-0.387496,-0.387496,-0.447814,-0.374274,-0.400506,-0.943636,-0.070075,0.255596,6.648337
-0.714594,-0.702355,1.421044,-0.435392,2.378186,-0.387496,-0.387496,-0.447814,-0.374274,-0.400506,-0.01345,1.147051,1.702911,7.704316
-0.714594,1.421044,-0.702355,-0.435392,-0.41968,-0.387496,-0.387496,-0.447814,2.666702,-0.400506,0.761706,-0.671217,-0.330658,6.240471
-0.714594,1.421044,-0.702355,-0.435392,-0.41968,-0.387496,-0.387496,-0.447814,-0.374274,2.492039,-1.187257,-0.245859,0.4388,6.667084
-0.714594,-0.702355,1.421044,-0.435392,-0.41968,2.575709,-0.387496,-0.447814,-0.374274,-0.400506,-1.563761,0.364272,-0.184094,6.926184
-0.714594,1.421044,-0.702355,-0.435392,-0.41968,2.575709,-0.387496,-0.447814,-0.374274,-0.400506,-0.987931,-1.075131,-0.770348,5.724891
-0.714594,1.421044,-0.702355,-0.435392,-0.41968,-0.387496,-0.387496,-0.447814,-0.374274,2.492039,1.315388,-0.701026,0.42048,6.585068
-0.714594,-0.702355,1.421044,-0.435392,2.378186,-0.387496,-0.387496,-0.447814,-0.374274,-0.400506,0.363054,1.705403,-0.184094,7.734778
-0.714594,1.421044,-0.702355,-0.435392,-0.41968,-0.387496,2.575709,-0.447814,-0.374274,-0.400506,1.448272,-0.017422,-0.458901,6.460999
-0.714594,-0.702355,1.421044,2.292365,-0.41968,-0.387496,-0.387496,-0.447814,-0.374274,-0.400506,-1.275846,1.707291,2.325806,8.235387
-0.714594,1.421044,-0.702355,-0.435392,-0.41968,-0.387496,-0.387496,-0.447814,2.666702,-0.400506,-1.563761,-0.156256,-0.348978,6.279459
-0.714594,-0.702355,1.421044,2.292365,-0.41968,-0.387496,-0.387496,-0.447814,-0.374274,-0.400506,0.495938,1.007151,1.66627,7.64377
-0.714594,-0.702355,1.421044,-0.435392,-0.41968,-0.387496,-0.387496,-0.447814,-0.374274,2.492039,0.252318,1.290344,1.794513,7.860995
-0.714594,1.421044,-0.702355,-0.435392,-0.41968,-0.387496,2.575709,-0.447814,-0.374274,-0.400506,0.31876,-0.147013,0.292237,6.666575
-0.714594,1.421044,-0.702355,-0.435392,-0.41968,-0.387496,-0.387496,-0.447814,2.666702,-0.400506,1.027473,-0.784842,-0.660426,5.957391
-0.714594,1.421044,-0.702355,-0.435392,-0.41968,-0.387496,-0.387496,-0.447814,-0.374274,2.492039,0.451644,0.075345,0.090712,8.946258
1.396706,-0.702355,-0.702355,-0.435392,2.378186,-0.387496,-0.387496,-0.447814,-0.374274,-0.400506,0.429496,-1.277012,-0.916912,5.395444
1.396706,-0.702355,-0.702355,-0.435392,-0.41968,2.575709,-0.387496,-0.447814,-0.374274,-0.400506,0.783853,-0.912686,-0.898592,5.73625
1.396706,-0.702355,-0.702355,2.292365,-0.41968,-0.387496,-0.387496,-0.447814,-0.374274,-0.400506,0.540233,-0.891044,-0.898592,5.675726
-0.714594,-0.702355,1.421044,-0.435392,-0.41968,-0.387496,-0.387496,2.228776,-0.374274,-0.400506,0.938884,0.627747,1.574668,7.681745
-0.714594,1.421044,-0.702355,-0.435392,-0.41968,-0.387496,-0.387496,2.228776,-0.374274,-0.400506,1.093915,-0.932345,-0.623785,6.052089
-0.714594,-0.702355,1.421044,-0.435392,-0.41968,-0.387496,2.575709,-0.447814,-0.374274,-0.400506,1.691892,1.566046,2.563971,8.060919
1.396706,-0.702355,-0.702355,-0.435392,2.378186,-0.387496,-0.387496,-0.447814,-0.374274,-0.400506,-0.722163,-1.036201,-0.898592,5.563754
-0.714594,1.421044,-0.702355,2.292365,-0.41968,-0.387496,-0.387496,-0.447814,-0.374274,-0.400506,0.518085,-0.943967,-0.770348,5.863915
-0.714594,-0.702355,1.421044,-0.435392,2.378186,-0.387496,-0.387496,-0.447814,-0.374274,-0.400506,-0.434248,1.727226,0,10.06123
-0.714594,1.421044,-0.702355,2.292365,-0.41968,-0.387496,-0.387496,-0.447814,-0.374274,-0.400506,-0.943636,-0.945566,-0.275697,6.112797
-0.714594,-0.702355,1.421044,-0.435392,-0.41968,-0.387496,2.575709,-0.447814,-0.374274,-0.400506,-0.766458,1.490358,-0.257376,7.546288
-0.714594,1.421044,-0.702355,-0.435392,-0.41968,-0.387496,2.575709,-0.447814,-0.374274,-0.400506,0.540233,0.347181,-0.312337,6.567094
1.396706,-0.702355,-0.702355,-0.435392,-0.41968,-0.387496,-0.387496,2.228776,-0.374274,-0.400506,0.451644,-1.250096,-0.935232,5.410753
1.396706,-0.702355,-0.702355,-0.435392,2.378186,-0.387496,-0.387496,-0.447814,-0.374274,-0.400506,0.429496,-1.367841,-0.953553,5.252797
-0.714594,1.421044,-0.702355,-0.435392,-0.41968,-0.387496,-0.387496,-0.447814,2.666702,-0.400506,-0.25707,-0.738923,-0.184094,6.207785
-0.714594,-0.702355,1.421044,-0.435392,-0.41968,-0.387496,-0.387496,2.228776,-0.374274,-0.400506,-0.01345,0.627747,2.655573,7.952545
1.396706,-0.702355,-0.702355,-0.435392,2.378186,-0.387496,-0.387496,-0.447814,-0.374274,-0.400506,0.894589,-1.424293,-0.935232,5.293807
1.396706,-0.702355,-0.702355,-0.435392,-0.41968,-0.387496,-0.387496,2.228776,-0.374274,-0.400506,-1.563761,-0.862333,-0.953553,5.526647
1.396706,-0.702355,-0.702355,-0.435392,-0.41968,-0.387496,-0.387496,-0.447814,2.666702,-0.400506,0.008698,-1.480973,-0.916912,5.357529
-0.714594,1.421044,-0.702355,-0.435392,-0.41968,2.575709,-0.387496,-0.447814,-0.374274,-0.400506,0,-0.062159,0.035751,6.550509
-0.714594,1.421044,-0.702355,-0.435392,-0.41968,2.575709,-0.387496,-0.447814,-0.374274,-0.400506,0.828148,0.355775,0.237276,6.890202
-0.714594,-0.702355,1.421044,-0.435392,-0.41968,2.575709,-0.387496,-0.447814,-0.374274,-0.400506,0,1.593443,0.731927,7.82756
-0.714594,-0.702355,1.421044,-0.435392,-0.41968,2.575709,-0.387496,-0.447814,-0.374274,-0.400506,1.647598,1.412253,-0.220735,7.553234
-0.714594,-0.702355,1.421044,-0.435392,-0.41968,-0.387496,-0.387496,-0.447814,-0.374274,2.492039,0.230171,0.997206,2.582292,7.921608
-0.714594,1.421044,-0.702355,2.292365,-0.41968,-0.387496,-0.387496,-0.447814,-0.374274,-0.400506,0.274465,0.058917,-0.42226,6.424707
-0.714594,1.421044,-0.702355,-0.435392,-0.41968,-0.387496,-0.387496,-0.447814,-0.374274,2.492039,-0.456396,-0.042247,-0.513862,9.1167
-0.714594,-0.702355,1.421044,-0.435392,-0.41968,-0.387496,-0.387496,-0.447814,-0.374274,2.492039,0.584527,1.186299,0.622005,10.21279
-0.714594,-0.702355,1.421044,-0.435392,-0.41968,-0.387496,-0.387496,-0.447814,-0.374274,2.492039,0.030845,0.588402,1.336502,7.477265
-0.714594,1.421044,-0.702355,-0.435392,-0.41968,2.575709,-0.387496,-0.447814,-0.374274,-0.400506,1.315388,0.279632,-0.623785,6.657112
-0.714594,-0.702355,1.421044,-0.435392,-0.41968,-0.387496,-0.387496,-0.447814,2.666702,-0.400506,-1.563761,1.218624,1.080016,7.722456
1.396706,-0.702355,-0.702355,-0.435392,-0.41968,-0.387496,2.575709,-0.447814,-0.374274,-0.400506,0.185876,-1.30235,-0.916912,5.374815
-0.714594,1.421044,-0.702355,-0.435392,-0.41968,-0.387496,2.575709,-0.447814,-0.374274,-0.400506,0.429496,-0.245649,-0.184094,6.336295
-0.714594,-0.702355,1.421044,2.292365,-0.41968,-0.387496,-0.387496,-0.447814,-0.374274,-0.400506,-0.212775,1.16944,-0.037531,7.414332
-0.714594,1.421044,-0.702355,-0.435392,-0.41968,2.575709,-0.387496,-0.447814,-0.374274,-0.400506,-0.456396,0.23542,-0.532183,6.517228
1.396706,-0.702355,-0.702355,-0.435392,-0.41968,2.575709,-0.387496,-0.447814,-0.374274,-0.400506,-0.412101,-0.835141,0,5.631212
-0.714594,1.421044,-0.702355,-0.435392,-0.41968,2.575709,-0.387496,-0.447814,-0.374274,-0.400506,0.185876,0.18902,0.383839,6.786152
-0.714594,1.421044,-0.702355,-0.435392,-0.41968,-0.387496,-0.387496,2.228776,-0.374274,-0.400506,-1.563761,-1.144184,-0.092492,6.163104
-0.714594,1.421044,-0.702355,-0.435392,2.378186,-0.387496,-0.387496,-0.447814,-0.374274,-0.400506,0,-0.177768,-0.312337,6.404898
-0.714594,1.421044,-0.702355,-0.435392,-0.41968,-0.387496,-0.387496,2.228776,-0.374274,-0.400506,-0.544985,-0.095196,0.035751,6.54276
1.396706,-0.702355,-0.702355,-0.435392,2.378186,-0.387496,-0.387496,-0.447814,-0.374274,-0.400506,0.119434,-1.549431,0,5.082646
-0.714594,1.421044,-0.702355,-0.435392,-0.41968,2.575709,-0.387496,-0.447814,-0.374274,-0.400506,0.385202,-0.42341,-0.458901,6.185591
-0.714594,1.421044,-0.702355,-0.435392,-0.41968,2.575709,-0.387496,-0.447814,-0.374274,-0.400506,-0.58928,0.181593,-0.806989,6.281332
-0.714594,-0.702355,1.421044,-0.435392,-0.41968,-0.387496,-0.387496,2.228776,-0.374274,-0.400506,0,0.60797,0.951773,7.435025
-0.714594,1.421044,-0.702355,-0.435392,-0.41968,-0.387496,-0.387496,2.228776,-0.374274,-0.400506,-1.563761,-0.033038,0.328878,6.79369
-0.714594,-0.702355,1.421044,-0.435392,2.378186,-0.387496,-0.387496,-0.447814,-0.374274,-0.400506,0.806,0.812865,0.585364,7.424941
1.396706,-0.702355,-0.702355,-0.435392,-0.41968,-0.387496,2.575709,-0.447814,-0.374274,-0.400506,1.182504,-1.561474,-0.898592,5.44458
1.396706,-0.702355,-0.702355,-0.435392,2.378186,-0.387496,-0.387496,-0.447814,-0.374274,-0.400506,-1.563761,-1.247696,-0.935232,5.372961
1.396706,-0.702355,-0.702355,-0.435392,-0.41968,-0.387496,-0.387496,2.228776,-0.374274,-0.400506,-0.456396,-0.693367,-0.953553,5.670226
1.396706,-0.702355,-0.702355,-0.435392,-0.41968,-0.387496,-0.387496,-0.447814,2.666702,-0.400506,-1.364435,-0.792632,-0.880271,5.775172
-0.714594,-0.702355,1.421044,-0.435392,-0.41968,-0.387496,-0.387496,2.228776,-0.374274,-0.400506,-0.212775,1.702935,0.40216,7.873331
-0.714594,1.421044,-0.702355,-0.435392,-0.41968,-0.387496,-0.387496,-0.447814,2.666702,-0.400506,0.695264,-0.08735,0.145673,6.705027
1.396706,-0.702355,-0.702355,2.292365,-0.41968,-0.387496,-0.387496,-0.447814,-0.374274,-0.400506,1.071768,-1.411265,-0.898592,5.443716
-0.714594,1.421044,-0.702355,-0.435392,-0.41968,-0.387496,-0.387496,2.228776,-0.374274,-0.400506,1.226799,-0.019124,-0.568824,6.375365
-0.714594,-0.702355,1.421044,2.292365,-0.41968,-0.387496,-0.387496,-0.447814,-0.374274,-0.400506,1.448272,1.224743,2.014358,7.819074
-0.714594,-0.702355,1.421044,-0.435392,-0.41968,-0.387496,2.575709,-0.447814,-0.374274,-0.400506,-0.25707,0.627747,0.072392,7.745349
-0.714594,-0.702355,1.421044,-0.435392,2.378186,-0.387496,-0.387496,-0.447814,-0.374274,-0.400506,-1.275846,0.479851,1.867795,10.411329
1.396706,-0.702355,-0.702355,-0.435392,-0.41968,-0.387496,-0.387496,-0.447814,2.666702,-0.400506,-0.146334,-1.012493,-0.916912,5.545568
-0.714594,1.421044,-0.702355,-0.435392,2.378186,-0.387496,-0.387496,-0.447814,-0.374274,-0.400506,0.695264,-0.662026,-0.715387,5.943849
-0.714594,1.421044,-0.702355,2.292365,-0.41968,-0.387496,-0.387496,-0.447814,-0.374274,-0.400506,-1.364435,-0.311553,-0.40394,6.272877
-0.714594,1.421044,-0.702355,-0.435392,-0.41968,-0.387496,-0.387496,-0.447814,2.666702,-0.400506,0,0.162269,0.255596,6.816736
-0.714594,-0.702355,1.421044,-0.435392,2.378186,-0.387496,-0.387496,-0.447814,-0.374274,-0.400506,0,1.252879,1.025054,7.629684
1.396706,-0.702355,-0.702355,-0.435392,-0.41968,-0.387496,-0.387496,2.228776,-0.374274,-0.400506,-0.234923,-1.110855,-0.935232,5.454038
-0.714594,-0.702355,1.421044,-0.435392,-0.41968,2.575709,-0.387496,-0.447814,-0.374274,-0.400506,0,1.140853,1.556347,7.694302
-0.714594,-0.702355,1.421044,2.292365,-0.41968,-0.387496,-0.387496,-0.447814,-0.374274,-0.400506,-0.744311,1.231424,0.200635,7.415837
-0.714594,1.421044,-0.702355,-0.435392,2.378186,-0.387496,-0.387496,-0.447814,-0.374274,-0.400506,0.075139,0.201816,-0.129133,6.623667
-0.714594,-0.702355,1.421044,2.292365,-0.41968,-0.387496,-0.387496,-0.447814,-0.374274,-0.400506,-0.25707,0.627747,1.959397,8.035408
-0.714594,1.421044,-0.702355,-0.435392,-0.41968,-0.387496,-0.387496,-0.447814,-0.374274,2.492039,1.049621,0.328035,0.310557,6.974947
1.396706,-0.702355,-0.702355,2.292365,-0.41968,-0.387496,-0.387496,-0.447814,-0.374274,-0.400506,-0.389954,-0.801383,-0.916912,5.700778
-0.714594,1.421044,-0.702355,-0.435392,-0.41968,-0.387496,-0.387496,-0.447814,2.666702,-0.400506,0.540233,-0.326579,-0.477221,6.158884
1.396706,-0.702355,-0.702355,-0.435392,-0.41968,-0.387496,-0.387496,-0.447814,-0.374274,2.492039,-0.035597,-0.865203,-0.916912,5.623295
-0.714594,1.421044,-0.702355,-0.435392,-0.41968,-0.387496,-0.387496,-0.447814,2.666702,-0.400506,0.274465,-0.149589,-0.367299,6.407705
-0.714594,-0.702355,1.421044,-0.435392,-0.41968,2.575709,-0.387496,-0.447814,-0.374274,-0.400506,-0.279217,0.898392,2.435728,7.91688
-0.714594,-0.702355,1.421044,-0.435392,-0.41968,-0.387496,-0.387496,-0.447814,-0.374274,2.492039,0.761706,1.614905,0.970093,7.802945
1.396706,-0.702355,-0.702355,-0.435392,-0.41968,-0.387496,-0.387496,2.228776,-0.374274,-0.400506,0.783853,-1.517849,-0.935232,5.221976
1.396706,-0.702355,-0.702355,2.292365,-0.41968,-0.387496,-0.387496,-0.447814,-0.374274,-0.400506,0.495938,-0.73408,-0.953553,5.736895
1.396706,-0.702355,-0.702355,-0.435392,2.378186,-0.387496,-0.387496,-0.447814,-0.374274,-0.400506,0.650969,-1.034997,-0.916912,5.60175
-0.714594,1.421044,-0.702355,-0.435392,-0.41968,-0.387496,2.575709,-0.447814,-0.374274,-0.400506,-1.054373,0.071786,0.109033,6.58755
-0.714594,1.421044,-0.702355,2.292365,-0.41968,-0.387496,-0.387496,-0.447814,-0.374274,-0.400506,0,0.092755,-0.770348,6.328115
1.396706,-0.702355,-0.702355,2.292365,-0.41968,-0.387496,-0.387496,-0.447814,-0.374274,-0.400506,1.359683,-0.737709,-0.935232,5.581238
-0.714594,-0.702355,1.421044,-0.435392,-0.41968,2.575709,-0.387496,-0.447814,-0.374274,-0.400506,0.540233,1.434049,-0.294017,7.510047
-0.714594,1.421044,-0.702355,-0.435392,-0.41968,-0.387496,-0.387496,2.228776,-0.374274,-0.400506,-1.165109,0.049224,-0.312337,6.468785
-0.714594,1.421044,-0.702355,-0.435392,-0.41968,-0.387496,2.575709,-0.447814,-0.374274,-0.400506,-0.057744,-0.912686,-0.00089,6.341769
-0.714594,1.421044,-0.702355,-0.435392,-0.41968,-0.387496,-0.387496,-0.447814,-0.374274,2.492039,0.407349,-0.051894,0,6.677965
1.396706,-0.702355,-0.702355,-0.435392,-0.41968,-0.387496,-0.387496,-0.447814,-0.374274,2.492039,-0.855047,-1.357599,0,5.236442
1.396706,-0.702355,-0.702355,-0.435392,-0.41968,-0.387496,-0.387496,-0.447814,-0.374274,2.492039,-1.519466,-0.832843,-0.916912,5.576328
1.396706,-0.702355,-0.702355,-0.435392,-0.41968,-0.387496,-0.387496,-0.447814,2.666702,-0.400506,-0.367807,0.627747,-0.898592,5.637286
1.396706,-0.702355,-0.702355,-0.435392,-0.41968,-0.387496,-0.387496,-0.447814,2.666702,-0.400506,-0.8329,-0.870493,-0.953553,5.46256
1.396706,-0.702355,-0.702355,-0.435392,2.378186,-0.387496,-0.387496,-0.447814,-0.374274,-0.400506,-0.035597,-1.513281,-0.898592,5.406275
-0.714594,-0.702355,1.421044,-0.435392,-0.41968,-0.387496,2.575709,-0.447814,-0.374274,-0.400506,-1.563761,0.430688,-0.294017,6.889591
-0.714594,-0.702355,1.421044,-0.435392,-0.41968,-0.387496,-0.387496,-0.447814,-0.374274,2.492039,0.606675,1.509884,2.563971,8.097639
1.396706,-0.702355,-0.702355,-0.435392,-0.41968,-0.387496,-0.387496,-0.447814,2.666702,-0.400506,-0.722163,-1.465862,-0.898592,5.456602
-0.714594,1.421044,-0.702355,-0.435392,2.378186,-0.387496,-0.387496,-0.447814,-0.374274,-0.400506,1.093915,-0.896521,-0.568824,5.991964
1.396706,-0.702355,-0.702355,-0.435392,-0.41968,-0.387496,-0.387496,2.228776,-0.374274,-0.400506,-0.323512,-1.561474,-0.880271,5.46806
-0.714594,-0.702355,1.421044,-0.435392,2.378186,-0.387496,-0.387496,-0.447814,-0.374274,-0.400506,-0.035597,1.700786,0.475441,7.780679
-0.714594,-0.702355,1.421044,-0.435392,-0.41968,-0.387496,-0.387496,-0.447814,2.666702,-0.400506,-0.212775,1.528815,2.362446,8.025713
-0.714594,1.421044,-0.702355,-0.435392,-0.41968,2.575709,-0.387496,-0.447814,-0.374274,-0.400506,-0.766458,-0.267123,-0.092492,6.408364
-0.714594,-0.702355,1.421044,-0.435392,-0.41968,2.575709,-0.387496,-0.447814,-0.374274,-0.400506,2.732815,0.97957,-0.092492,7.439207
1.396706,-0.702355,-0.702355,-0.435392,-0.41968,-0.387496,-0.387496,-0.447814,-0.374274,2.492039,-0.567132,-1.135196,-0.953553,5.300315
-0.714594,1.421044,-0.702355,-0.435392,-0.41968,2.575709,-0.387496,-0.447814,-0.374274,-0.400506,1.116062,0.193465,0.347198,6.874612
1.396706,-0.702355,-0.702355,-0.435392,-0.41968,-0.387496,-0.387496,-0.447814,-0.374274,2.492039,-1.231551,-0.883149,-0.953553,5.533785
1.396706,-0.702355,-0.702355,-0.435392,-0.41968,-0.387496,-0.387496,-0.447814,-0.374274,2.492039,0.407349,-1.313601,-0.898592,5.525453
-0.714594,1.421044,-0.702355,-0.435392,-0.41968,-0.387496,-0.387496,-0.447814,2.666702,-0.400506,0.518085,-0.602686,-0.568824,6.155283
1.396706,-0.702355,-0.702355,-0.435392,-0.41968,2.575709,-0.387496,-0.447814,-0.374274,-0.400506,-0.035597,0.627747,-0.916912,5.406723
-0.714594,-0.702355,1.421044,-0.435392,-0.41968,-0.387496,-0.387496,-0.447814,-0.374274,2.492039,-0.655721,1.457368,0.328878,7.670335
1.396706,-0.702355,-0.702355,-0.435392,-0.41968,-0.387496,2.575709,-0.447814,-0.374274,-0.400506,-0.301365,-0.815601,-0.916912,5.67057
-0.714594,1.421044,-0.702355,-0.435392,-0.41968,-0.387496,-0.387496,2.228776,-0.374274,-0.400506,-0.456396,-0.413904,0.255596,6.576748
-0.714594,1.421044,-0.702355,-0.435392,2.378186,-0.387496,-0.387496,-0.447814,-0.374274,-0.400506,2.644226,-1.097013,-0.074172,6.35106
-0.714594,1.421044,-0.702355,-0.435392,2.378186,-0.387496,-0.387496,-0.447814,-0.374274,-0.400506,0,-0.859474,0.42048,6.465678
1.396706,-0.702355,-0.702355,-0.435392,-0.41968,-0.387496,-0.387496,-0.447814,2.666702,-0.400506,0.56238,-0.69757,-0.916912,5.705115
-0.714594,1.421044,-0.702355,-0.435392,-0.41968,2.575709,-0.387496,-0.447814,-0.374274,-0.400506,1.95766,-0.360005,0.42048,6.629759
-0.714594,1.421044,-0.702355,-0.435392,-0.41968,2.575709,-0.387496,-0.447814,-0.374274,-0.400506,-0.987931,0.18902,-0.678746,6.341065
1.396706,-0.702355,-0.702355,-0.435392,-0.41968,-0.387496,-0.387496,-0.447814,-0.374274,2.492039,0.030845,-0.908612,-0.935232,5.570632
-0.714594,-0.702355,1.421044,2.292365,-0.41968,-0.387496,-0.387496,-0.447814,-0.374274,-0.400506,-0.301365,1.122049,1.281541,7.733771
1.396706,-0.702355,-0.702355,-0.435392,-0.41968,-0.387496,-0.387496,-0.447814,-0.374274,2.492039,-0.102039,-1.28873,-0.880271,5.538515
-0.714594,1.421044,-0.702355,-0.435392,-0.41968,-0.387496,-0.387496,2.228776,-0.374274,-0.400506,-0.212775,0.627747,-0.074172,6.288973
-0.714594,1.421044,-0.702355,-0.435392,-0.41968,-0.387496,2.575709,-0.447814,-0.374274,-0.400506,-0.8329,0.050213,0.182314,6.654668
1.396706,-0.702355,-0.702355,-0.435392,2.378186,-0.387496,-0.387496,-0.447814,-0.374274,-0.400506,0.208023,-0.809347,-0.880271,5.830709
-0.714594,-0.702355,1.421044,-0.435392,-0.41968,-0.387496,-0.387496,-0.447814,-0.374274,2.492039,-1.187257,1.441271,0.493762,7.549767
-0.714594,1.421044,-0.702355,2.292365,-0.41968,-0.387496,-0.387496,-0.447814,-0.374274,-0.400506,1.071768,-0.038581,0.054071,6.569481
-0.714594,1.421044,-0.702355,2.292365,-0.41968,-0.387496,-0.387496,-0.447814,-0.374274,-0.400506,0.673116,-1.006682,-0.275697,6.161207
-0.714594,1.421044,-0.702355,-0.435392,-0.41968,-0.387496,-0.387496,-0.447814,-0.374274,2.492039,-0.567132,0.336947,-0.605465,6.589751
1.396706,-0.702355,-0.702355,-0.435392,-0.41968,-0.387496,-0.387496,-0.447814,2.666702,-0.400506,-0.50069,-0.794374,-0.916912,5.655292
-0.714594,1.421044,-0.702355,-0.435392,2.378186,-0.387496,-0.387496,-0.447814,-0.374274,-0.400506,0.296612,-0.364412,-0.623785,6.025383
-0.714594,-0.702355,1.421044,-0.435392,-0.41968,-0.387496,-0.387496,-0.447814,2.666702,-0.400506,-0.899342,1.717073,0.530403,7.900303
-0.714594,1.421044,-0.702355,-0.435392,-0.41968,-0.387496,2.575709,-0.447814,-0.374274,-0.400506,2.001954,0.037109,0.090712,6.630815
-0.714594,1.421044,-0.702355,2.292365,-0.41968,-0.387496,-0.387496,-0.447814,-0.374274,-0.400506,0.385202,0.017307,-0.440581,6.350886
-0.714594,-0.702355,1.421044,2.292365,-0.41968,-0.387496,-0.387496,-0.447814,-0.374274,-0.400506,0.429496,1.538075,0.622005,7.740577
-0.714594,1.421044,-0.702355,-0.435392,-0.41968,-0.387496,-0.387496,2.228776,-0.374274,-0.400506,0.739558,0.223078,0.054071,6.711254
1.396706,-0.702355,-0.702355,-0.435392,-0.41968,-0.387496,2.575709,-0.447814,-0.374274,-0.400506,-0.655721,-0.886593,-0.898592,5.641552
1.396706,-0.702355,-0.702355,2.292365,-0.41968,-0.387496,-0.387496,-0.447814,-0.374274,-0.400506,1.182504,-1.38683,-0.880271,5.455748
1.396706,-0.702355,-0.702355,-0.435392,-0.41968,-0.387496,2.575709,-0.447814,-0.374274,-0.400506,0.119434,-1.146273,-0.916912,5.553734
-0.714594,-0.702355,1.421044,-0.435392,2.378186,-0.387496,-0.387496,-0.447814,-0.374274,-0.400506,1.049621,1.680574,2.50901,8.209336
-0.714594,1.421044,-0.702355,-0.435392,-0.41968,2.575709,-0.387496,-0.447814,-0.374274,-0.400506,-0.234923,-0.4921,-0.220735,6.315358
1.396706,-0.702355,-0.702355,2.292365,-0.41968,-0.387496,-0.387496,-0.447814,-0.374274,-0.400506,1.448272,-1.114189,-0.880271,8.317473
-0.714594,-0.702355,1.421044,-0.435392,-0.41968,-0.387496,-0.387496,2.228776,-0.374274,-0.400506,0.429496,1.194589,1.867795,7.810434
-0.714594,1.421044,-0.702355,-0.435392,2.378186,-0.387496,-0.387496,-0.447814,-0.374274,-0.400506,2.400606,-0.147196,0.42048,6.710767
-0.714594,-0.702355,1.421044,-0.435392,-0.41968,-0.387496,-0.387496,-0.447814,-0.374274,2.492039,0,1.409889,-0.00089,10.462535
1.396706,-0.702355,-0.702355,-0.435392,-0.41968,-0.387496,2.575709,-0.447814,-0.374274,-0.400506,0.208023,-0.711102,-0.953553,5.687314
1.396706,-0.702355,-0.702355,-0.435392,-0.41968,-0.387496,-0.387496,-0.447814,-0.374274,2.492039,-1.165109,-1.248495,-0.935232,5.307773
1.396706,-0.702355,-0.702355,-0.435392,-0.41968,-0.387496,-0.387496,-0.447814,2.666702,-0.400506,-0.58928,-1.395535,-0.953553,5.232178
-0.714594,-0.702355,1.421044,-0.435392,2.378186,-0.387496,-0.387496,-0.447814,-0.374274,-0.400506,0.673116,0.771008,-0.495542,7.068428
-0.714594,-0.702355,1.421044,-0.435392,-0.41968,-0.387496,-0.387496,-0.447814,-0.374274,2.492039,1.226799,1.650304,0.182314,7.848192
1.396706,-0.702355,-0.702355,2.292365,-0.41968,-0.387496,-0.387496,-0.447814,-0.374274,-0.400506,3.26435,-0.894027,-0.898592,5.818301
-0.714594,-0.702355,1.421044,-0.435392,-0.41968,-0.387496,2.575709,-0.447814,-0.374274,-0.400506,0,0.959792,0.750248,7.530587
